
        $ From http://www.csplib.org/Problems/prob009/data/helmut.pdf
        $ Problem number 144
        $ Sequence length : 25
        language ESSENCE' 1.0
        letting sizemaster be 477
        letting sizes be sequence(3,5,12,16,19,22,25,26,37,41,49,72,76,77,82,86,87,115,117,135,141,149,167,169,193)
        